c width = 8, time = 0.225027
s td 10 9 21
b 1 2 3 4 5 6 13 19 20 21
b 2 2 3 4 5 6 13 17 19 21
b 3 1 6 13 17 19
b 4 2 3 15 17 21
b 5 3 4 5 6 11 14 19 20 21
b 6 4 6 7 10 11 14 20 21
b 7 3 4 6 11 12 14 19 20 21
b 8 8 11 12 19 21
b 9 3 9 12 14 20
b 10 2 3 4 5 6 13 16 18
2 3
2 4
1 2
5 6
7 8
7 9
5 7
1 5
1 10
